(set-option :print-success true)
(set-logic QF_AUFLIA)
(set-option :produce-models true)
(declare-fun a () Int)
(declare-fun f (Int Bool) Int)
(declare-fun a1 () (Array Int Int))
(declare-fun a2 () (Array Int Int))
(declare-fun a3 () (Array Int Int))
(assert (>= a 10))
(assert (>= (f a true) 100))
(check-sat)
(get-value (a))
(get-value ((select a1 a)))
(get-value ((select a3 2) a f a true (select a1 a)))
